1381.07 0
0 118 17 25 22 24 27 33 30 31 34 36 35 28 32 29 49 50 51 48 42 39 115 0 
0 117 83 5 3 4 10 11 108 110 67 69 70 98 116 100 99 102 0 
0 88 81 2 1 15 14 12 16 19 23 26 20 21 109 94 93 96 0 
0 95 37 44 46 47 45 65 62 64 66 63 60 56 79 77 76 73 101 0 
0 87 89 92 91 90 114 18 84 85 86 111 82 119 120 0 
0 112 113 6 7 9 13 8 53 55 58 61 59 57 54 52 68 107 0 
0 97 38 41 43 40 80 78 72 75 74 71 103 104 106 105 0 
